
Gurobi 9.5.2 (win64) logging started Mon Mar 27 20:25:28 2023

Set parameter LogFile to value "2023-03-27_20hr-25min-09sec/Nodes10_Arcs15_LocNodes8/Formulation-2Instance-3.log"
Set parameter TimeLimit to value 600
Set parameter IntFeasTol to value 1e-09
Set parameter DualReductions to value 0
Set parameter NonConvex to value 2
Gurobi Optimizer version 9.5.2 build v9.5.2rc0 (win64)
Thread count: 4 physical cores, 8 logical processors, using up to 8 threads
Optimize a model with 44 rows, 76 columns and 162 nonzeros
Model fingerprint: 0xcc7d5b61
Model has 25 quadratic objective terms
Model has 25 SOS constraints
Variable types: 68 continuous, 8 integer (8 binary)
Coefficient statistics:
  Matrix range     [7e-02, 2e+02]
  Objective range  [1e-01, 1e+03]
  QObjective range [1e-01, 7e+00]
  Bounds range     [1e+00, 1e+00]
  RHS range        [1e-01, 1e+03]
Presolve time: 0.00s
Presolved: 44 rows, 76 columns, 162 nonzeros
Presolved model has 25 SOS constraint(s)
Presolved model has 25 quadratic objective terms
Variable types: 68 continuous, 8 integer (8 binary)

Root relaxation: objective 1.306092e+05, 88 iterations, 0.00 seconds (0.00 work units)

    Nodes    |    Current Node    |     Objective Bounds      |     Work
 Expl Unexpl |  Obj  Depth IntInf | Incumbent    BestBd   Gap | It/Node Time

     0     0 130609.202    0    5          - 130609.202      -     -    0s
H    0     0                    128174.90035 130609.202  1.90%     -    0s
     0     0 130542.886    0    4 128174.900 130542.886  1.85%     -    0s
H    0     0                    128572.13623 130542.886  1.53%     -    0s
     0     0 130036.668    0    4 128572.136 130036.668  1.14%     -    0s
     0     0 129325.379    0    4 128572.136 129325.379  0.59%     -    0s

Cutting planes:
  MIR: 2
  Flow cover: 2

Explored 1 nodes (99 simplex iterations) in 0.03 seconds (0.00 work units)
Thread count was 8 (of 8 available processors)

Solution count 2: 128572 128175 

Optimal solution found (tolerance 1.00e-04)
Best objective 1.285721362277e+05, best bound 1.285721362277e+05, gap 0.0000%

User-callback calls 159, time in user-callback 0.00 sec
